3 
4  32 46 
5  00 19 34 58 
6  13 28 43 58 
7  13 28 43 58 
8  13 28 43 58 
9  13 28 43 58 
10  13 28 43 58 
11  13 28 43 58 
12  13 28 43 58 
13  13 28 43 58 
14  13 28 43 58 
15  13 28 43 58 
16  13 28 43 58 
17  13 28 43 58 
18  14 29 43 58 
19  13 28 43 58 
20  13 28 43 58 
21  13 28 43 58 
22  13 31 46 
23  05 
0 
